(set-info :smt-lib-version 2.6)
(set-info :category "crafted")
(set-logic QF_FFA)
(define-sort FF0 () (_ FiniteField 52435875175126190479447740508185965837690552500527637822603658699938581184513))
(declare-fun x19 () Bool)
(declare-fun x18 () Bool)
(declare-fun x17 () Bool)
(declare-fun x16 () Bool)
(declare-fun x15 () Bool)
(declare-fun x14 () Bool)
(declare-fun x13 () Bool)
(declare-fun x12 () Bool)
(declare-fun x11 () Bool)
(declare-fun x10 () Bool)
(declare-fun x9 () Bool)
(declare-fun x8 () Bool)
(declare-fun x7 () Bool)
(declare-fun x6 () Bool)
(declare-fun x5 () Bool)
(declare-fun x4 () Bool)
(declare-fun x3 () Bool)
(declare-fun x2 () Bool)
(declare-fun x1 () Bool)
(declare-fun x0 () Bool)
(declare-fun out () FF0)
(declare-fun _38 () FF0)
(declare-fun _11 () FF0)
(declare-fun _37 () FF0)
(declare-fun _10 () FF0)
(declare-fun _36 () FF0)
(declare-fun _9 () FF0)
(declare-fun _35 () FF0)
(declare-fun _8 () FF0)
(declare-fun _34 () FF0)
(declare-fun _7 () FF0)
(declare-fun _33 () FF0)
(declare-fun _6 () FF0)
(declare-fun _32 () FF0)
(declare-fun _5 () FF0)
(declare-fun _31 () FF0)
(declare-fun _4 () FF0)
(declare-fun _30 () FF0)
(declare-fun _3 () FF0)
(declare-fun _29 () FF0)
(declare-fun _2 () FF0)
(declare-fun _28 () FF0)
(declare-fun _19 () FF0)
(declare-fun _27 () FF0)
(declare-fun _18 () FF0)
(declare-fun _26 () FF0)
(declare-fun _17 () FF0)
(declare-fun _25 () FF0)
(declare-fun _16 () FF0)
(declare-fun _24 () FF0)
(declare-fun _15 () FF0)
(declare-fun _23 () FF0)
(declare-fun _14 () FF0)
(declare-fun _22 () FF0)
(declare-fun _13 () FF0)
(declare-fun _21 () FF0)
(declare-fun _12 () FF0)
(declare-fun _20 () FF0)
(declare-fun _1 () FF0)
(declare-fun _0 () FF0)
(assert 
  (let ((let0 x19))
  (let ((let1 x18))
  (let ((let2 x17))
  (let ((let3 x16))
  (let ((let4 x15))
  (let ((let5 x14))
  (let ((let6 x13))
  (let ((let7 x12))
  (let ((let8 x11))
  (let ((let9 x10))
  (let ((let10 x9))
  (let ((let11 x8))
  (let ((let12 x7))
  (let ((let13 x6))
  (let ((let14 x5))
  (let ((let15 x4))
  (let ((let16 x3))
  (let ((let17 x2))
  (let ((let18 x1))
  (let ((let19 x0))
  (let ((let20 (and let19 let18 let17 let16 let15 let14 let13 let12 let11 let10 let9 let8 let7 let6 let5 let4 let3 let2 let1 let0)))
  (let ((let21 out))
  (let ((let22 (as ff1 FF0)))
  (let ((let23 (= let22 let21)))
  (let ((let24 (= let23 let20)))
  (let ((let25 (as ff0 FF0)))
  (let ((let26 (= let25 let21)))
  (let ((let27 (or let23 let26)))
  (let ((let28 (and let27 let24)))
  (let ((let29 _38))
  (let ((let30 (= let29 let21)))
  (let ((let31 _11))
  (let ((let32 _37))
  (let ((let33 (ff.mul let32 let31)))
  (let ((let34 (= let33 let29)))
  (let ((let35 _10))
  (let ((let36 _36))
  (let ((let37 (ff.mul let36 let35)))
  (let ((let38 (= let37 let32)))
  (let ((let39 _9))
  (let ((let40 _35))
  (let ((let41 (ff.mul let40 let39)))
  (let ((let42 (= let41 let36)))
  (let ((let43 _8))
  (let ((let44 _34))
  (let ((let45 (ff.mul let44 let43)))
  (let ((let46 (= let45 let40)))
  (let ((let47 _7))
  (let ((let48 _33))
  (let ((let49 (ff.mul let48 let47)))
  (let ((let50 (= let49 let44)))
  (let ((let51 _6))
  (let ((let52 _32))
  (let ((let53 (ff.mul let52 let51)))
  (let ((let54 (= let53 let48)))
  (let ((let55 _5))
  (let ((let56 _31))
  (let ((let57 (ff.mul let56 let55)))
  (let ((let58 (= let57 let52)))
  (let ((let59 _4))
  (let ((let60 _30))
  (let ((let61 (ff.mul let60 let59)))
  (let ((let62 (= let61 let56)))
  (let ((let63 _3))
  (let ((let64 _29))
  (let ((let65 (ff.mul let64 let63)))
  (let ((let66 (= let65 let60)))
  (let ((let67 _2))
  (let ((let68 _28))
  (let ((let69 (ff.mul let68 let67)))
  (let ((let70 (= let69 let64)))
  (let ((let71 _19))
  (let ((let72 _27))
  (let ((let73 (ff.mul let72 let71)))
  (let ((let74 (= let73 let68)))
  (let ((let75 _18))
  (let ((let76 _26))
  (let ((let77 (ff.mul let76 let75)))
  (let ((let78 (= let77 let72)))
  (let ((let79 _17))
  (let ((let80 _25))
  (let ((let81 (ff.mul let80 let79)))
  (let ((let82 (= let81 let76)))
  (let ((let83 _16))
  (let ((let84 _24))
  (let ((let85 (ff.mul let84 let83)))
  (let ((let86 (= let85 let80)))
  (let ((let87 _15))
  (let ((let88 _23))
  (let ((let89 (ff.mul let88 let87)))
  (let ((let90 (= let89 let84)))
  (let ((let91 _14))
  (let ((let92 _22))
  (let ((let93 (ff.mul let92 let91)))
  (let ((let94 (= let93 let88)))
  (let ((let95 _13))
  (let ((let96 _21))
  (let ((let97 (ff.mul let96 let95)))
  (let ((let98 (= let97 let92)))
  (let ((let99 _12))
  (let ((let100 _20))
  (let ((let101 (ff.mul let100 let99)))
  (let ((let102 (= let101 let96)))
  (let ((let103 _1))
  (let ((let104 _0))
  (let ((let105 (ff.mul let104 let103)))
  (let ((let106 (= let105 let100)))
  (let ((let107 (ff.mul let75 let75)))
  (let ((let108 (= let107 let75)))
  (let ((let109 (ff.mul let79 let79)))
  (let ((let110 (= let109 let79)))
  (let ((let111 (ff.mul let83 let83)))
  (let ((let112 (= let111 let83)))
  (let ((let113 (ff.mul let87 let87)))
  (let ((let114 (= let113 let87)))
  (let ((let115 (ff.mul let91 let91)))
  (let ((let116 (= let115 let91)))
  (let ((let117 (ff.mul let95 let95)))
  (let ((let118 (= let117 let95)))
  (let ((let119 (ff.mul let99 let99)))
  (let ((let120 (= let119 let99)))
  (let ((let121 (ff.mul let31 let31)))
  (let ((let122 (= let121 let31)))
  (let ((let123 (ff.mul let35 let35)))
  (let ((let124 (= let123 let35)))
  (let ((let125 (ff.mul let39 let39)))
  (let ((let126 (= let125 let39)))
  (let ((let127 (ff.mul let43 let43)))
  (let ((let128 (= let127 let43)))
  (let ((let129 (ff.mul let47 let47)))
  (let ((let130 (= let129 let47)))
  (let ((let131 (ff.mul let51 let51)))
  (let ((let132 (= let131 let51)))
  (let ((let133 (ff.mul let55 let55)))
  (let ((let134 (= let133 let55)))
  (let ((let135 (ff.mul let59 let59)))
  (let ((let136 (= let135 let59)))
  (let ((let137 (ff.mul let63 let63)))
  (let ((let138 (= let137 let63)))
  (let ((let139 (ff.mul let67 let67)))
  (let ((let140 (= let139 let67)))
  (let ((let141 (ff.mul let103 let103)))
  (let ((let142 (= let141 let103)))
  (let ((let143 (ff.mul let104 let104)))
  (let ((let144 (= let143 let104)))
  (let ((let145 (and let144 let142 let140 let138 let136 let134 let132 let130 let128 let126 let124 let122 let120 let118 let116 let114 let112 let110 let108 let106 let102 let98 let94 let90 let86 let82 let78 let74 let70 let66 let62 let58 let54 let50 let46 let42 let38 let34 let30)))
  (let ((let146 (ite let12 let22 let25)))
  (let ((let147 (= let79 let146)))
  (let ((let148 (ite let0 let22 let25)))
  (let ((let149 (= let31 let148)))
  (let ((let150 (ite let9 let22 let25)))
  (let ((let151 (= let67 let150)))
  (let ((let152 (ite let1 let22 let25)))
  (let ((let153 (= let35 let152)))
  (let ((let154 (ite let17 let22 let25)))
  (let ((let155 (= let99 let154)))
  (let ((let156 (ite let5 let22 let25)))
  (let ((let157 (= let51 let156)))
  (let ((let158 (ite let10 let22 let25)))
  (let ((let159 (= let71 let158)))
  (let ((let160 (ite let3 let22 let25)))
  (let ((let161 (= let43 let160)))
  (let ((let162 (ite let6 let22 let25)))
  (let ((let163 (= let55 let162)))
  (let ((let164 (ite let19 let22 let25)))
  (let ((let165 (= let104 let164)))
  (let ((let166 (ite let15 let22 let25)))
  (let ((let167 (= let91 let166)))
  (let ((let168 (ite let8 let22 let25)))
  (let ((let169 (= let63 let168)))
  (let ((let170 (ite let7 let22 let25)))
  (let ((let171 (= let59 let170)))
  (let ((let172 (ite let14 let22 let25)))
  (let ((let173 (= let87 let172)))
  (let ((let174 (ite let2 let22 let25)))
  (let ((let175 (= let39 let174)))
  (let ((let176 (ite let11 let22 let25)))
  (let ((let177 (= let75 let176)))
  (let ((let178 (ite let16 let22 let25)))
  (let ((let179 (= let95 let178)))
  (let ((let180 (ite let4 let22 let25)))
  (let ((let181 (= let47 let180)))
  (let ((let182 (ite let13 let22 let25)))
  (let ((let183 (= let83 let182)))
  (let ((let184 (ite let18 let22 let25)))
  (let ((let185 (= let103 let184)))
  (let ((let186 (and let185 let183 let181 let179 let177 let175 let173 let171 let169 let167 let165 let163 let161 let159 let157 let155 let153 let151 let149 let147)))
  (let ((let187 (and let186 let145)))
  (let ((let188 (=> let187 let28)))
  (let ((let189 (not let188)))
  let189
))))))))))))))))))))))))))))))))))))))))))))))))))))))))))))))))))))))))))))))))))))))))))))))))))))))))))))))))))))))))))))))))))))))))))))))))))))))))))))))))))))))))))))))))))))))))))))))
)
(check-sat)
